set Fabricas:= A B;
set Distribuidores:= M N O P Q R;
param Produccion := 
    A 2500
    B 2000;

param Demanda :=
    M 700
    N 650
    O 550
    P 6
    Q 750
    R 920;

param Costo: M  N  	O  	P  	Q  	R :=
         A 	310 280 260 0   0   0
         B 	270 0   285 0   0   0
         M	 0  0 	0	310	320	0
         N	 0	0	0	0	335	350
         O	 0	0	0	300	0	340  ;
